language Essence 1.3

letting codeWordLength be 25
letting dist be
        function((1, 1) --> 0, (1, 2) --> 3, (1, 3) --> 0, (1, 4) --> 9, (1, 5) --> 3, (1, 6) --> 0, (1, 7) --> 5,
                 (1, 8) --> 4, (1, 9) --> 4, (1, 10) --> 10, (1, 11) --> 0, (1, 12) --> 8, (1, 13) --> 3, (1, 14) --> 6,
                 (1, 15) --> 6, (1, 16) --> 5, (1, 17) --> 3, (1, 18) --> 1, (2, 1) --> 3, (2, 2) --> 0, (2, 3) --> 3,
                 (2, 4) --> 9, (2, 5) --> 7, (2, 6) --> 11, (2, 7) --> 5, (2, 8) --> 7, (2, 9) --> 11, (2, 10) --> 0,
                 (2, 11) --> 2, (2, 12) --> 9, (2, 13) --> 8, (2, 14) --> 9, (2, 15) --> 3, (2, 16) --> 4,
                 (2, 17) --> 2, (2, 18) --> 6, (3, 1) --> 0, (3, 2) --> 3, (3, 3) --> 0, (3, 4) --> 7, (3, 5) --> 4,
                 (3, 6) --> 8, (3, 7) --> 7, (3, 8) --> 1, (3, 9) --> 7, (3, 10) --> 2, (3, 11) --> 8, (3, 12) --> 7,
                 (3, 13) --> 0, (3, 14) --> 3, (3, 15) --> 7, (3, 16) --> 7, (3, 17) --> 5, (3, 18) --> 8, (4, 1) --> 9,
                 (4, 2) --> 9, (4, 3) --> 7, (4, 4) --> 0, (4, 5) --> 2, (4, 6) --> 2, (4, 7) --> 0, (4, 8) --> 4,
                 (4, 9) --> 4, (4, 10) --> 2, (4, 11) --> 9, (4, 12) --> 11, (4, 13) --> 1, (4, 14) --> 1,
                 (4, 15) --> 2, (4, 16) --> 11, (4, 17) --> 0, (4, 18) --> 4, (5, 1) --> 3, (5, 2) --> 7, (5, 3) --> 4,
                 (5, 4) --> 2, (5, 5) --> 0, (5, 6) --> 2, (5, 7) --> 4, (5, 8) --> 11, (5, 9) --> 1, (5, 10) --> 4,
                 (5, 11) --> 1, (5, 12) --> 0, (5, 13) --> 2, (5, 14) --> 5, (5, 15) --> 10, (5, 16) --> 4,
                 (5, 17) --> 0, (5, 18) --> 8, (6, 1) --> 0, (6, 2) --> 11, (6, 3) --> 8, (6, 4) --> 2, (6, 5) --> 2,
                 (6, 6) --> 0, (6, 7) --> 4, (6, 8) --> 5, (6, 9) --> 6, (6, 10) --> 6, (6, 11) --> 11, (6, 12) --> 0,
                 (6, 13) --> 4, (6, 14) --> 3, (6, 15) --> 11, (6, 16) --> 3, (6, 17) --> 4, (6, 18) --> 7,
                 (7, 1) --> 5, (7, 2) --> 5, (7, 3) --> 7, (7, 4) --> 0, (7, 5) --> 4, (7, 6) --> 4, (7, 7) --> 0,
                 (7, 8) --> 3, (7, 9) --> 6, (7, 10) --> 9, (7, 11) --> 3, (7, 12) --> 1, (7, 13) --> 8, (7, 14) --> 3,
                 (7, 15) --> 9, (7, 16) --> 3, (7, 17) --> 5, (7, 18) --> 0, (8, 1) --> 4, (8, 2) --> 7, (8, 3) --> 1,
                 (8, 4) --> 4, (8, 5) --> 11, (8, 6) --> 5, (8, 7) --> 3, (8, 8) --> 0, (8, 9) --> 4, (8, 10) --> 6,
                 (8, 11) --> 9, (8, 12) --> 4, (8, 13) --> 2, (8, 14) --> 7, (8, 15) --> 3, (8, 16) --> 0,
                 (8, 17) --> 3, (8, 18) --> 7, (9, 1) --> 4, (9, 2) --> 11, (9, 3) --> 7, (9, 4) --> 4, (9, 5) --> 1,
                 (9, 6) --> 6, (9, 7) --> 6, (9, 8) --> 4, (9, 9) --> 0, (9, 10) --> 4, (9, 11) --> 6, (9, 12) --> 1,
                 (9, 13) --> 3, (9, 14) --> 1, (9, 15) --> 1, (9, 16) --> 3, (9, 17) --> 0, (9, 18) --> 3,
                 (10, 1) --> 10, (10, 2) --> 0, (10, 3) --> 2, (10, 4) --> 2, (10, 5) --> 4, (10, 6) --> 6,
                 (10, 7) --> 9, (10, 8) --> 6, (10, 9) --> 4, (10, 10) --> 0, (10, 11) --> 5, (10, 12) --> 1,
                 (10, 13) --> 3, (10, 14) --> 0, (10, 15) --> 5, (10, 16) --> 4, (10, 17) --> 1, (10, 18) --> 9,
                 (11, 1) --> 0, (11, 2) --> 2, (11, 3) --> 8, (11, 4) --> 9, (11, 5) --> 1, (11, 6) --> 11,
                 (11, 7) --> 3, (11, 8) --> 9, (11, 9) --> 6, (11, 10) --> 5, (11, 11) --> 0, (11, 12) --> 11,
                 (11, 13) --> 1, (11, 14) --> 6, (11, 15) --> 2, (11, 16) --> 0, (11, 17) --> 10, (11, 18) --> 3,
                 (12, 1) --> 8, (12, 2) --> 9, (12, 3) --> 7, (12, 4) --> 11, (12, 5) --> 0, (12, 6) --> 0,
                 (12, 7) --> 1, (12, 8) --> 4, (12, 9) --> 1, (12, 10) --> 1, (12, 11) --> 11, (12, 12) --> 0,
                 (12, 13) --> 11, (12, 14) --> 10, (12, 15) --> 6, (12, 16) --> 1, (12, 17) --> 4, (12, 18) --> 4,
                 (13, 1) --> 3, (13, 2) --> 8, (13, 3) --> 0, (13, 4) --> 1, (13, 5) --> 2, (13, 6) --> 4,
                 (13, 7) --> 8, (13, 8) --> 2, (13, 9) --> 3, (13, 10) --> 3, (13, 11) --> 1, (13, 12) --> 11,
                 (13, 13) --> 0, (13, 14) --> 1, (13, 15) --> 0, (13, 16) --> 4, (13, 17) --> 6, (13, 18) --> 1,
                 (14, 1) --> 6, (14, 2) --> 9, (14, 3) --> 3, (14, 4) --> 1, (14, 5) --> 5, (14, 6) --> 3,
                 (14, 7) --> 3, (14, 8) --> 7, (14, 9) --> 1, (14, 10) --> 0, (14, 11) --> 6, (14, 12) --> 10,
                 (14, 13) --> 1, (14, 14) --> 0, (14, 15) --> 3, (14, 16) --> 11, (14, 17) --> 6, (14, 18) --> 10,
                 (15, 1) --> 6, (15, 2) --> 3, (15, 3) --> 7, (15, 4) --> 2, (15, 5) --> 10, (15, 6) --> 11,
                 (15, 7) --> 9, (15, 8) --> 3, (15, 9) --> 1, (15, 10) --> 5, (15, 11) --> 2, (15, 12) --> 6,
                 (15, 13) --> 0, (15, 14) --> 3, (15, 15) --> 0, (15, 16) --> 11, (15, 17) --> 5, (15, 18) --> 9,
                 (16, 1) --> 5, (16, 2) --> 4, (16, 3) --> 7, (16, 4) --> 11, (16, 5) --> 4, (16, 6) --> 3,
                 (16, 7) --> 3, (16, 8) --> 0, (16, 9) --> 3, (16, 10) --> 4, (16, 11) --> 0, (16, 12) --> 1,
                 (16, 13) --> 4, (16, 14) --> 11, (16, 15) --> 11, (16, 16) --> 0, (16, 17) --> 8, (16, 18) --> 7,
                 (17, 1) --> 3, (17, 2) --> 2, (17, 3) --> 5, (17, 4) --> 0, (17, 5) --> 0, (17, 6) --> 4,
                 (17, 7) --> 5, (17, 8) --> 3, (17, 9) --> 0, (17, 10) --> 1, (17, 11) --> 10, (17, 12) --> 4,
                 (17, 13) --> 6, (17, 14) --> 6, (17, 15) --> 5, (17, 16) --> 8, (17, 17) --> 0, (17, 18) --> 2,
                 (18, 1) --> 1, (18, 2) --> 6, (18, 3) --> 8, (18, 4) --> 4, (18, 5) --> 8, (18, 6) --> 7,
                 (18, 7) --> 0, (18, 8) --> 7, (18, 9) --> 3, (18, 10) --> 9, (18, 11) --> 3, (18, 12) --> 4,
                 (18, 13) --> 1, (18, 14) --> 10, (18, 15) --> 9, (18, 16) --> 7, (18, 17) --> 2, (18, 18) --> 0)
letting maxDist be 36
letting minDist be 60
letting nbCharacter be 18
letting numOfCodeWords be 13
